53
2 72 119 
2 39 30 
2 15 16 
2 76 28 
3 111 77 27 
3 47 109 41 
2 75 3 
3 73 118 101 
2 54 101 
2 12 46 
2 83 63 
2 94 62 
2 6 7 
2 2 69 
2 99 116 
3 42 18 31 
3 24 10 120 
2 62 34 
2 61 36 
2 105 53 
3 79 110 43 
3 20 64 49 
2 13 86 
3 23 100 35 
2 94 32 
2 50 73 
3 56 11 81 
3 70 67 1 
2 60 26 
2 58 68 
3 55 59 91 
2 98 85 
2 65 4 
2 103 112 
2 51 93 
2 71 74 
2 45 80 
2 97 33 
2 37 84 
2 82 88 
2 99 25 
2 108 114 
2 14 29 
3 104 96 117 
2 57 95 
2 44 102 
3 19 22 48 
2 113 89 
3 115 87 107 
2 90 21 
3 32 38 40 
2 66 78 
1 52 
